Ce4                                     
0.850
     4.7207052111895758    0.0000000000000000   -0.0000000000000000
     0.0000000000000000    4.7207052111895758    0.0000000000000000
    -0.0000000000000000    0.0000000000000000    4.7207052111895758
   Ce
     4
Direct
 -0.0000000000000000 -0.0000000000000000  0.0000000000000000
  0.0000000000000000  0.5000000000000000  0.5000000000000000
  0.5000000000000000 -0.0000000000000000  0.5000000000000000
  0.5000000000000000  0.5000000000000000  0.0000000000000000
 
  0.00000000E+00  0.00000000E+00  0.00000000E+00
  0.00000000E+00  0.00000000E+00  0.00000000E+00
  0.00000000E+00  0.00000000E+00  0.00000000E+00
  0.00000000E+00  0.00000000E+00  0.00000000E+00
