units             metal
boundary          p  p  p
atom_style        atomic

#variable          i loop 40
#variable          x equal 4.7-0.03*$i
variable          i loop 14400
#variable          x equal 4.6-0.0005*$i 原
variable          x equal 4.9-0.0001*$i


lattice           fcc $x
region            box block 0 20 0 20 0 20
create_box        1 box
create_atoms      1 box

pair_style        eam/fs
pair_coeff        * * ./Mg_2021chj.eam.fs Mg

neighbor          2.0 bin
neigh_modify      every 1 delay 5 check yes

variable          N equal atoms

variable          E equal  pe/$N
variable          v equal  vol/$N
variable          P equal  press/10000
variable          H equal  enthalpy/$N

timestep          0.001
thermo            10

min_style         sd
minimize          1.0e-20  1.0e-30  1000  1000

print             "@@@@  (energy per atom): $x $E $v $P $H" append fcc_result.txt

clear
next              i
jump              in.fcc_enthalpy



