# Input file for Vacancy Formation Energy
#-----------------------------------------------------------------------------------------------------------------
#       参考视频：https://www.youtube.com/watch?v=cbIrOWfHhKs
#       参考代码：https://github.com/NextZenStudent/Vacancy-Formation-energy/blob/main/vacancy.lmp
#------------------------------------------------------------------------------------------------------------------

variable mass_U          equal  235.0439



# --------------- INITIALIZATION ------------------
clear
units           metal
dimension                     3
boundary                      p   p    p
atom_style      atomic



boundary        p p p

# ------- hcp setting by hjchen-------------------
lattice     bcc    3.32



region         simbox block -4 4 -4 4 -4 4  # ---------------胞太小了， library.meam  Al U  AlU.meam U计算的太离谱。空位形成能-90多了
#region          simbox block  -1 2 -1 2 -1 2
#region         simbox block 0 8 0 8 0 8
#region         simbox block -10 10 -10 10 -10 10
#region         simbox block -6 6 -6 6 -6 6



create_box      1 simbox
mass 1 ${mass_U}
create_atoms    1 region simbox


#------------温度设置-----------hjchen-2021-11-26
variable    ts equal 0.1
#-------------设置温度下的速度-------
#velocity all create ${ts} 825577 dist gaussian
#fix      1 all  nvt temp ${ts}  ${ts}  0.1
#run 5000
#unfix 1
#------------温度设置-----------hjchen-2021-11-26



# ------------------------ FORCE FIELDS -----------------------

# 用Cu-Ta的ADP势
# pair_style  mlip mlip.ini                 #------------
# pair_coeff  * *

# 用Ta的ADP势
pair_style      adp
pair_coeff      * *  Ta.adp.txt   Ta



#---------------------------Settings----------------------------

compute eng all pe/atom
compute eatoms all reduce sum c_eng


#----------------------Run Minimization-------------------------
#reset_timestep 0


thermo 10
thermo_style custom step pe lx ly lz press pxx pyy pzz c_eatoms


#dump 1 all custom 400 dump.relax.1.* id type xs ys zs c_csym c_eng

fix 1 all box/relax iso 0.0 vmax 0.001
min_style cg
minimize 1e-15 1e-15 5000 5000
unfix 1
run 0
#undump 1


#variable N equal count(all), counts the total number of atoms in the cell
#the total number of atoms is stored to the variable N


variable N equal count(all)
variable No equal $N


#variable Ei equal "c_eatoms" computes the initial energy of the cell system before the vacancy
#E is needed to store the initial energy of the system to the variable Ei


variable E equal "c_eatoms"
variable Ei equal $E


#---------------------------------------------------------------way1-----ok的(针对region 0 8 0 8 0 8）
#variable r2 equal sqrt(3)/4              # 针对bcc结构
#region select sphere 4 4 4 ${r2} units box
#delete_atoms region select compress yes

#-----
#variable r2 equal ${ao}/2
#r2 is the radius of the Zn atom


#region select is a region defined so that all atoms within this region are removed
#region         centerpoint block -0.1 0.4 -0.1 0.4 -0.1 0.4
region          centerpoint block  -0.1 0.2 -0.1 0.2 -0.1 0.2
delete_atoms           region centerpoint                         # -------------------way2: 改用这种删除原子的方法（针对region -4 4 -4 4 -4 4）

#region select sphere 0 0 0 ${r2} units box                       #-----------------注释掉
#delete_atoms region select compress yes                       #-----------------注释掉 2021-10-17

#---------------------------------------------------------------------


#reset_timestep 0


thermo 10
thermo_style custom step pe lx ly lz press pxx pyy pzz c_eatoms


#dump 1 all custom 2 dump.atom id type xs ys zs c_csym c_eng




min_style cg
minimize 1e-15 1e-15 10000 10000
#run 1

#variable Ef equal "c_eatoms" computes the final energy of the cell system after the vacancy
#The final energy is stored to the variable Ef


variable Ef equal "c_eatoms"
variable Ev equal (${Ef}-((${No}-1)/${No})*${Ei})


#---------------------------------------------


######################################
# SIMULATION DONE
print "All done"
print "Total number of atoms = ${No}"
print "Initial energy of atoms = ${Ei}"
print "Final energy of atoms = ${Ef}"
print "Vacancy formation energy = ${Ev}"

