Ta54                                    
   1.00000000000000     
     9.7838075974358514   -0.0000000000000000   -0.0000000000000000
     0.1064388350887453   10.1051598720538554   -0.0000000000000000
     0.0227838723700511   -0.4002358550435490    9.4670937765385688
   Ta
    54
Direct
  0.0036816206110046  0.0052408313912551  0.9955934052218467
  0.0020329390232874  0.9979435442434266  0.3319289307440414
  0.0064639637717079  0.0009799435673870  0.6681282155116364
  0.9994135009554483  0.3301806660125877  0.9969881304576660
  0.0045459334120750  0.3376703670688741  0.3259286441787168
  0.9995955886998260  0.3279099640428242  0.6609765635899194
  0.0004608070292704  0.6610118644436511  0.9995921305639186
  0.9928804978202947  0.6651524741916717  0.3315049252261133
  0.9989430168930369  0.6595607622083222  0.6593842086438499
  0.3412255760859040  0.0023686832003449  0.9947915996330181
  0.3293115338246650  0.0010114963343142  0.3260349746877154
  0.3410714283631862  0.9997373107563732  0.6712867813086802
  0.3310893902393985  0.3413369493017129  0.9957225659684141
  0.3367523971133508  0.3354520110962227  0.3335351232207273
  0.3322996037033832  0.3284640201016984  0.6634018769164811
  0.3296157305370855  0.6716909564671099  0.0070710451781864
  0.3340118658589475  0.6698417067927593  0.3306915913264206
  0.3299232051141630  0.6621713693105136  0.6703630711705486
  0.6649617197687334  0.9979629249371769  0.0059314596353914
  0.6659671322479568  0.9980011738600467  0.3305276677045939
  0.6655016546223962  0.9928404682848466  0.6699184566563900
  0.6661046359697949  0.3327383017096253  0.0070863716874001
  0.6650025733399190  0.3411986108070622  0.3333076463465332
  0.6607956545603528  0.3336803725867057  0.6596564958590037
  0.6661688787589313  0.6624242738048878  0.0091766351797702
  0.6697851109375108  0.6661044682674984  0.3420795808451444
  0.6624685864587221  0.6721057149790326  0.6617345918580853
  0.1685369953455051  0.1637545183630067  0.1589734815799275
  0.1623606706230589  0.1664380278164401  0.5026932056164810
  0.1621987659034261  0.1679658395477475  0.8255541181781325
  0.1594089699034029  0.5051610279713827  0.1665840577293451
  0.1630964910847510  0.4983137716851616  0.4931237789858400
  0.1670433662249877  0.4982260199433171  0.8309970467490615
  0.1743195391379189  0.8390120820470344  0.1693898385557517
  0.1751003661121615  0.8340324547200666  0.4980916425044768
  0.1633963053551781  0.8289554987863283  0.8389861096215014
  0.5055386399258737  0.1674171759396685  0.1715405419902538
  0.5028118586824633  0.1602893378350956  0.5048146275833503
  0.5042926359913196  0.1635896457428743  0.8322037107548965
  0.4953585775207401  0.5034640180636245  0.1686270245633565
  0.4947970075037844  0.5049910384565521  0.4993403600390280
  0.4979190066835315  0.5036585701141476  0.8286649218307787
  0.4970904384123997  0.8375208674391317  0.1603873387272117
  0.4960059514133590  0.8403764191156284  0.4945150112700958
  0.5083586245844884  0.8361523141653748  0.8335669276622824
  0.8243843308710339  0.1624797506212303  0.1644719464022586
  0.8292025198556985  0.1642163012037798  0.5057291944509004
  0.8300321770557559  0.1595332387346815  0.8280770981510557
  0.8274353809508170  0.5021715848368373  0.1655325047570173
  0.8309551362031513  0.5065574094337464  0.5052998162281952
  0.8239917655290157  0.5009051345913349  0.8374219477203368
  0.8334054174261496  0.8394105573631805  0.1607636663082133
  0.8259504929554851  0.8278229254196248  0.4960094707033633
  0.8366039650402044  0.8379842088797531  0.8339744697539828
 
  0.00000000E+00  0.00000000E+00  0.00000000E+00
  0.00000000E+00  0.00000000E+00  0.00000000E+00
  0.00000000E+00  0.00000000E+00  0.00000000E+00
  0.00000000E+00  0.00000000E+00  0.00000000E+00
  0.00000000E+00  0.00000000E+00  0.00000000E+00
  0.00000000E+00  0.00000000E+00  0.00000000E+00
  0.00000000E+00  0.00000000E+00  0.00000000E+00
  0.00000000E+00  0.00000000E+00  0.00000000E+00
  0.00000000E+00  0.00000000E+00  0.00000000E+00
  0.00000000E+00  0.00000000E+00  0.00000000E+00
  0.00000000E+00  0.00000000E+00  0.00000000E+00
  0.00000000E+00  0.00000000E+00  0.00000000E+00
  0.00000000E+00  0.00000000E+00  0.00000000E+00
  0.00000000E+00  0.00000000E+00  0.00000000E+00
  0.00000000E+00  0.00000000E+00  0.00000000E+00
  0.00000000E+00  0.00000000E+00  0.00000000E+00
  0.00000000E+00  0.00000000E+00  0.00000000E+00
  0.00000000E+00  0.00000000E+00  0.00000000E+00
  0.00000000E+00  0.00000000E+00  0.00000000E+00
  0.00000000E+00  0.00000000E+00  0.00000000E+00
  0.00000000E+00  0.00000000E+00  0.00000000E+00
  0.00000000E+00  0.00000000E+00  0.00000000E+00
  0.00000000E+00  0.00000000E+00  0.00000000E+00
  0.00000000E+00  0.00000000E+00  0.00000000E+00
  0.00000000E+00  0.00000000E+00  0.00000000E+00
  0.00000000E+00  0.00000000E+00  0.00000000E+00
  0.00000000E+00  0.00000000E+00  0.00000000E+00
  0.00000000E+00  0.00000000E+00  0.00000000E+00
  0.00000000E+00  0.00000000E+00  0.00000000E+00
  0.00000000E+00  0.00000000E+00  0.00000000E+00
  0.00000000E+00  0.00000000E+00  0.00000000E+00
  0.00000000E+00  0.00000000E+00  0.00000000E+00
  0.00000000E+00  0.00000000E+00  0.00000000E+00
  0.00000000E+00  0.00000000E+00  0.00000000E+00
  0.00000000E+00  0.00000000E+00  0.00000000E+00
  0.00000000E+00  0.00000000E+00  0.00000000E+00
  0.00000000E+00  0.00000000E+00  0.00000000E+00
  0.00000000E+00  0.00000000E+00  0.00000000E+00
  0.00000000E+00  0.00000000E+00  0.00000000E+00
  0.00000000E+00  0.00000000E+00  0.00000000E+00
  0.00000000E+00  0.00000000E+00  0.00000000E+00
  0.00000000E+00  0.00000000E+00  0.00000000E+00
  0.00000000E+00  0.00000000E+00  0.00000000E+00
  0.00000000E+00  0.00000000E+00  0.00000000E+00
  0.00000000E+00  0.00000000E+00  0.00000000E+00
  0.00000000E+00  0.00000000E+00  0.00000000E+00
  0.00000000E+00  0.00000000E+00  0.00000000E+00
  0.00000000E+00  0.00000000E+00  0.00000000E+00
  0.00000000E+00  0.00000000E+00  0.00000000E+00
  0.00000000E+00  0.00000000E+00  0.00000000E+00
  0.00000000E+00  0.00000000E+00  0.00000000E+00
  0.00000000E+00  0.00000000E+00  0.00000000E+00
  0.00000000E+00  0.00000000E+00  0.00000000E+00
  0.00000000E+00  0.00000000E+00  0.00000000E+00
