Ta54 
1.0
9.7838075974358514e+00 -3.1510175975845464e-18 -1.5331406605336821e-18 
1.0643883508874526e-01 1.0105159872053855e+01 -3.7957962280886243e-18 
2.2783872370051066e-02 -4.0023585504354903e-01 9.4670937765385688e+00 
Ta 
54 
Cartesian
   0.0364776964    0.0547231163   -0.0417176460
   0.0272336239   -0.1536306736    3.1424023145
   0.0785690299   -0.2575063812    6.3252324710
   0.0293372296    3.3377338749   -0.0285136514
   0.0878436950    3.2817647137    3.0855970389
   0.0460052779    3.0490360902    6.2575271116
   0.0748564873    6.6797938115   -0.0038613382
   0.0086951809    6.5887919338    3.1383882145
   0.0748848855    6.4010577449    6.2424521380
   3.3386188361    0.0260205110   -0.0493084147
   3.2294566883   -0.1202695547    3.0866036798
   3.3522437841   -0.2713275557    6.3551349096
   3.2755489424    3.4509764254   -0.0404948691
   3.3380250043    3.2563034863    3.1576082893
   3.3012315787    3.0536642179    6.2804877803
   3.2965519974    6.7847144139    0.0669422478
   3.3467394368    6.6365029043    3.1306883062
   3.3136593766    6.4230442126    6.3463900591
   6.5057758436   -0.0229589520    0.0561536846
   6.5230122356   -0.1524874814    3.1291364259
   6.5256414290   -0.3404735989    6.3421808518
   6.5526173303    3.3595375143    0.0670873453
   6.5501680509    3.3144648395    3.1554547444
   6.5156436250    3.1078753295    6.2450299066
   6.5883848845    6.6902303715    0.0868760658
   6.6317419382    6.5941796298    3.2384994709
   6.5680802151    6.5268857906    6.2647034363
   1.6699854072    1.5911387005    1.5050168581
   1.6176743304    1.4806870349    4.7590437184
   1.6236089261    1.3669053033    7.8155982544
   1.6171908721    5.0380600360    1.5770668962
   1.6599798952    4.8381745120    4.6684490591
   1.7062840834    4.7020587704    7.8671269696
   1.7986716565    8.4105553368    1.6036294864
   1.8132701916    8.2286771590    4.7154802889
   1.7059864238    8.0409355191    7.9427601770
   4.9678208331    1.6231206527    1.6239903975
   4.9479771255    1.4177044705    4.7791274191
   4.9702752378    1.3200217599    7.8785505709
   4.9039231144    5.0200938110    1.5964078548
   4.9061262861    4.9031612616    4.7273020149
   4.9440327878    4.7578889584    7.8450485243
   4.9562361981    8.3990894980    1.5184019763
   4.9535424498    8.2942154295    4.6816199856
   5.0816739342    8.1158294400    7.8914562732
   8.0866591428    1.5760562859    1.5570713402
   8.1417593748    1.4570210207    4.7877857094
   8.1567224550    1.2806827369    7.8394835424
   8.1526905965    5.0082721044    1.5671117456
   8.1953352418    4.9166045027    4.7837207455
   8.1341723696    4.7265601765    7.9279521096
   8.2468869555    8.4180344970    1.5219647048
   8.1803542324    8.1667622325    4.6957681732
   8.2933674601    8.1341779160    7.8953145124
