Ta24                                    
   1.00000000000000     
     6.4432583634086331   -0.0000000000000000    0.0000000000000000
    -0.0152246194174893    6.6638017876850029   -0.0000000000000000
    -0.8268213536693551   -0.1561091121782835   18.9873072128414542
   Ta
    24
Direct
  0.0024212497577096  0.0049642037786342  0.6365114760310107
  0.0064402493566789  0.4967356993337333  0.6352835868659668
  0.4984113570378454  0.9981490833569708  0.6364144352563841
  0.4962245034806969  0.4965014270633219  0.6370782644586370
  0.9963523787778357  0.9995979526451393  0.2753382452707314
  0.0017903125467171  0.5023550123539096  0.2732390062394501
  0.5009130251064065  0.9997714220314933  0.2737821349982781
  0.5040481197421158  0.4969946745712335  0.2714278345859640
  0.0024509239889667  0.0043718549037592  0.4528326991088534
  0.9998921604223696  0.4989481684898394  0.4542647219963101
  0.5007497575299169  0.0000212559343709  0.4526165029545481
  0.5025041453938357  0.4993165177562631  0.4536468663273396
  0.2501249238707146  0.2469238066759374  0.7249255579638429
  0.2478072618113174  0.7483586872192731  0.7275296402407960
  0.7474872831572554  0.2491309516696276  0.7276195323819437
  0.7460429264175872  0.7485439654998274  0.7281682278016390
  0.2450028746755706  0.2477224040748425  0.3654133761162086
  0.2518425070561321  0.7499886033745327  0.3625708180696634
  0.7445969225252327  0.2528312371349983  0.3649533317296019
  0.7461694345790804  0.7474194489318222  0.3637426653069085
  0.2536904129317534  0.2517132620463371  0.5468344410985182
  0.2554362548769120  0.7462518020651245  0.5447980907584409
  0.7498685882830571  0.2536518934242409  0.5459638874431363
  0.7467613639069768  0.7462069040413866  0.5438572018583088
 
  0.00000000E+00  0.00000000E+00  0.00000000E+00
  0.00000000E+00  0.00000000E+00  0.00000000E+00
  0.00000000E+00  0.00000000E+00  0.00000000E+00
  0.00000000E+00  0.00000000E+00  0.00000000E+00
  0.00000000E+00  0.00000000E+00  0.00000000E+00
  0.00000000E+00  0.00000000E+00  0.00000000E+00
  0.00000000E+00  0.00000000E+00  0.00000000E+00
  0.00000000E+00  0.00000000E+00  0.00000000E+00
  0.00000000E+00  0.00000000E+00  0.00000000E+00
  0.00000000E+00  0.00000000E+00  0.00000000E+00
  0.00000000E+00  0.00000000E+00  0.00000000E+00
  0.00000000E+00  0.00000000E+00  0.00000000E+00
  0.00000000E+00  0.00000000E+00  0.00000000E+00
  0.00000000E+00  0.00000000E+00  0.00000000E+00
  0.00000000E+00  0.00000000E+00  0.00000000E+00
  0.00000000E+00  0.00000000E+00  0.00000000E+00
  0.00000000E+00  0.00000000E+00  0.00000000E+00
  0.00000000E+00  0.00000000E+00  0.00000000E+00
  0.00000000E+00  0.00000000E+00  0.00000000E+00
  0.00000000E+00  0.00000000E+00  0.00000000E+00
  0.00000000E+00  0.00000000E+00  0.00000000E+00
  0.00000000E+00  0.00000000E+00  0.00000000E+00
  0.00000000E+00  0.00000000E+00  0.00000000E+00
  0.00000000E+00  0.00000000E+00  0.00000000E+00
