Ta24 
1.0
6.4432583634086331e+00 -5.4252336276057668e-19 4.1427479346936631e-18 
-1.5224619417489333e-02 6.6638017876850029e+00 -3.7739047916390853e-18 
-8.2682135366935505e-01 -1.5610911217828349e-01 1.8987307212841454e+01 
Ta 
24 
Cartesian
  -0.5107561206   -0.0662847714   12.0856389399
  -0.4913324567    3.2109746845   12.0623246311
   2.6852202793   -0.1116842341   12.0837963969
   2.6629937239    3.2091333750   12.0964007259
  -0.2511519856   -0.0456619729    5.2279318504
  -0.2220325626    3.3049391307    5.1880729540
   3.0011466029   -0.0442630843    5.1983855066
   3.0157233787    3.2695016426    5.1536836814
  -0.3586863686   -0.0415581361    8.5980735740
  -0.3838869066    3.2539768347    8.6252638325
   2.8522267499   -0.0705159151    8.5939685912
   2.8550772174    3.2565278941    8.6135324171
   1.0084762555    1.5322838191   13.7643842755
   0.9837556940    4.8733399515   13.8138287857
   4.2108493981    1.5465712419   13.8155355954
   4.1934859883    4.8744749199   13.8259538439
   1.2727137597    1.5937286414    6.9382160320
   1.3114867542    4.9411747874    6.8842435091
   4.4920298813    1.6278447094    6.9294810279
   4.4956330703    4.9238715154    6.9064937326
   1.1786262434    1.5920014465   10.3829135277
   1.1840296910    4.8878261464   10.3442487182
   4.3763206989    1.6050560031   10.3663840580
   4.3505429395    4.8876738362   10.3263837716
