Ta Ce                                   
   1.00000000000000     
     9.9731620000000003    0.1515480000000000   -0.0693850000000000
    -0.0016820000000000   10.2891560000000002    0.0471880000000000
     0.0550650000000000   -0.0683550000000000   21.9015340000000016
   Ta   Ce
    54    32
Direct
  0.0878462299999967  0.0319873999999984  0.4948919099999998
  0.1754527399999972  0.1561096000000006  0.0897228400000003
  0.0102395600000023  0.0013842700000026  0.1636564399999969
  0.1992704999999972  0.1782409899999990  0.2269228500000011
  0.0226155300000030  0.0306200799999985  0.2940413099999972
  0.1717630400000019  0.1450198599999979  0.3911580099999981
  0.0112552300000033  0.3662693400000023  0.0109437799999981
  0.0417184699999993  0.3422563800000020  0.1593925100000035
  0.0438383600000023  0.3501401799999968  0.3138844100000000
  0.0240537700000019  0.7032580799999977  0.4646821400000007
  0.1826518000000021  0.5403231800000015  0.0768321199999988
  0.0179851099999979  0.6864311599999979  0.1661241899999979
  0.1997579399999978  0.5177788100000029  0.2326693699999964
  0.9897044200000025  0.7116670699999972  0.3246228699999989
  0.1812688899999984  0.5368005899999986  0.3898364000000001
  0.1811257100000034  0.8690783600000032  0.0810535299999984
  0.1748531300000025  0.8364163000000033  0.2323260100000013
  0.2277804900000007  0.8276438899999974  0.4041949799999998
  0.3350853800000024  0.9950268099999988  0.0045063600000006
  0.3822194299999992  0.0346497999999968  0.1479347499999975
  0.3581546699999976  0.0211364500000002  0.3211220600000004
  0.3216786099999993  0.3425366100000033  0.0201198899999966
  0.3622707800000029  0.3128405200000017  0.1419271600000016
  0.3541273399999980  0.3319589800000031  0.3275332400000011
  0.3472383200000024  0.7045693800000024  0.0023194600000025
  0.3384133100000000  0.6697035500000013  0.1453619700000033
  0.3505109399999995  0.6915173299999964  0.3070106099999990
  0.6643231500000013  0.0593997599999980  0.4772001600000024
  0.5695541300000002  0.1794071400000021  0.0486767700000001
  0.6926024400000017  0.0079330499999983  0.1568131900000012
  0.5124164100000002  0.1822114200000016  0.2530403600000000
  0.6809092000000021  0.0321664800000008  0.3276308000000014
  0.5155733900000001  0.1961718299999973  0.3922298000000026
  0.7484894799999964  0.3510091599999967  0.9786150500000019
  0.6672553200000024  0.3531026100000005  0.1546846500000001
  0.6729205399999998  0.3756098699999981  0.3219618299999993
  0.7321628899999979  0.6692665200000008  0.4733063099999981
  0.4949529599999991  0.5238438800000011  0.0684742700000029
  0.6743357799999998  0.6850598400000010  0.1514808000000016
  0.5327751499999991  0.5234641699999969  0.2320068499999977
  0.7005052900000024  0.6672279300000028  0.3062613900000031
  0.5097041900000008  0.5386951300000007  0.3967128099999968
  0.5310141699999988  0.8746616099999969  0.0794736000000000
  0.4973384099999976  0.8592864700000007  0.2202943200000007
  0.5604393200000004  0.8449063999999993  0.4073374399999992
  0.8412241199999997  0.2094941000000006  0.0836212399999994
  0.8484674099999978  0.1949900199999988  0.2471373400000019
  0.8949737900000017  0.1618942699999977  0.3856019500000016
  0.8593317500000026  0.5394472999999991  0.0862448900000032
  0.8353445999999991  0.4966917699999982  0.2299641700000024
  0.8485183299999974  0.5101798299999984  0.3973342600000009
  0.8859405800000033  0.8486908900000003  0.0989754000000005
  0.8248230399999983  0.8427780199999972  0.2382155299999980
  0.8421599899999990  0.8781155799999993  0.4028035799999969
  0.7419262199999963  0.6508238300000002  0.9726817299999979
  0.3579631599999971  0.0051341400000027  0.5248374199999972
  0.1063271900000018  0.8347868299999988  0.6044270399999974
  0.8483290100000005  0.9163917099999992  0.5725039699999996
  0.3519071999999994  0.6693068900000014  0.5255398799999966
  0.0472344599999985  0.3214848100000012  0.5040891900000020
  0.6409442799999994  0.3752556900000030  0.5094030200000006
  0.7620621599999993  0.7090248299999971  0.7481941100000000
  0.2979587600000002  0.3214333700000012  0.4797106500000012
  0.1361784799999981  0.3879343400000010  0.6042694699999984
  0.7024589800000030  0.5309230399999976  0.6158876800000002
  0.4459115200000028  0.8143767999999980  0.6695705699999976
  0.6502076599999995  0.1018100799999999  0.6362837300000024
  0.3887533600000026  0.5348776299999969  0.7377592599999971
  0.5748256299999994  0.8381076200000024  0.5400165100000009
  0.0367444500000005  0.1490224599999976  0.6271402899999998
  0.3740257600000021  0.2104556900000034  0.6818338100000005
  0.6418098799999967  0.9675880200000009  0.7617070299999966
  0.0019069800000011  0.4082331099999976  0.7495743599999969
  0.7193987300000018  0.3272277700000004  0.7163908500000034
  0.9689867900000024  0.1418349599999971  0.7680900699999995
  0.0752682299999989  0.7540488200000013  0.8200590599999984
  0.5162007300000013  0.7666406499999994  0.8966117499999982
  0.5215726599999968  0.4518608599999965  0.9248474600000023
  0.3720976199999981  0.1094437200000016  0.8387358000000020
  0.8050351699999965  0.8233224499999992  0.8606347600000035
  0.1442509199999975  0.0864836100000019  0.9302872100000030
  0.5848949900000022  0.1178930600000001  0.8997609500000010
  0.9018114300000022  0.3335807500000030  0.8778183700000000
  0.8538113999999979  0.0475051800000017  0.9991959199999982
  0.0630952100000002  0.7041225899999972  0.9647925399999977
  0.2109288199999995  0.4533789400000003  0.8776627299999973
 
  0.00000000E+00  0.00000000E+00  0.00000000E+00
  0.00000000E+00  0.00000000E+00  0.00000000E+00
  0.00000000E+00  0.00000000E+00  0.00000000E+00
  0.00000000E+00  0.00000000E+00  0.00000000E+00
  0.00000000E+00  0.00000000E+00  0.00000000E+00
  0.00000000E+00  0.00000000E+00  0.00000000E+00
  0.00000000E+00  0.00000000E+00  0.00000000E+00
  0.00000000E+00  0.00000000E+00  0.00000000E+00
  0.00000000E+00  0.00000000E+00  0.00000000E+00
  0.00000000E+00  0.00000000E+00  0.00000000E+00
  0.00000000E+00  0.00000000E+00  0.00000000E+00
  0.00000000E+00  0.00000000E+00  0.00000000E+00
  0.00000000E+00  0.00000000E+00  0.00000000E+00
  0.00000000E+00  0.00000000E+00  0.00000000E+00
  0.00000000E+00  0.00000000E+00  0.00000000E+00
  0.00000000E+00  0.00000000E+00  0.00000000E+00
  0.00000000E+00  0.00000000E+00  0.00000000E+00
  0.00000000E+00  0.00000000E+00  0.00000000E+00
  0.00000000E+00  0.00000000E+00  0.00000000E+00
  0.00000000E+00  0.00000000E+00  0.00000000E+00
  0.00000000E+00  0.00000000E+00  0.00000000E+00
  0.00000000E+00  0.00000000E+00  0.00000000E+00
  0.00000000E+00  0.00000000E+00  0.00000000E+00
  0.00000000E+00  0.00000000E+00  0.00000000E+00
  0.00000000E+00  0.00000000E+00  0.00000000E+00
  0.00000000E+00  0.00000000E+00  0.00000000E+00
  0.00000000E+00  0.00000000E+00  0.00000000E+00
  0.00000000E+00  0.00000000E+00  0.00000000E+00
  0.00000000E+00  0.00000000E+00  0.00000000E+00
  0.00000000E+00  0.00000000E+00  0.00000000E+00
  0.00000000E+00  0.00000000E+00  0.00000000E+00
  0.00000000E+00  0.00000000E+00  0.00000000E+00
  0.00000000E+00  0.00000000E+00  0.00000000E+00
  0.00000000E+00  0.00000000E+00  0.00000000E+00
  0.00000000E+00  0.00000000E+00  0.00000000E+00
  0.00000000E+00  0.00000000E+00  0.00000000E+00
  0.00000000E+00  0.00000000E+00  0.00000000E+00
  0.00000000E+00  0.00000000E+00  0.00000000E+00
  0.00000000E+00  0.00000000E+00  0.00000000E+00
  0.00000000E+00  0.00000000E+00  0.00000000E+00
  0.00000000E+00  0.00000000E+00  0.00000000E+00
  0.00000000E+00  0.00000000E+00  0.00000000E+00
  0.00000000E+00  0.00000000E+00  0.00000000E+00
  0.00000000E+00  0.00000000E+00  0.00000000E+00
  0.00000000E+00  0.00000000E+00  0.00000000E+00
  0.00000000E+00  0.00000000E+00  0.00000000E+00
  0.00000000E+00  0.00000000E+00  0.00000000E+00
  0.00000000E+00  0.00000000E+00  0.00000000E+00
  0.00000000E+00  0.00000000E+00  0.00000000E+00
  0.00000000E+00  0.00000000E+00  0.00000000E+00
  0.00000000E+00  0.00000000E+00  0.00000000E+00
  0.00000000E+00  0.00000000E+00  0.00000000E+00
  0.00000000E+00  0.00000000E+00  0.00000000E+00
  0.00000000E+00  0.00000000E+00  0.00000000E+00
  0.00000000E+00  0.00000000E+00  0.00000000E+00
  0.00000000E+00  0.00000000E+00  0.00000000E+00
  0.00000000E+00  0.00000000E+00  0.00000000E+00
  0.00000000E+00  0.00000000E+00  0.00000000E+00
  0.00000000E+00  0.00000000E+00  0.00000000E+00
  0.00000000E+00  0.00000000E+00  0.00000000E+00
  0.00000000E+00  0.00000000E+00  0.00000000E+00
  0.00000000E+00  0.00000000E+00  0.00000000E+00
  0.00000000E+00  0.00000000E+00  0.00000000E+00
  0.00000000E+00  0.00000000E+00  0.00000000E+00
  0.00000000E+00  0.00000000E+00  0.00000000E+00
  0.00000000E+00  0.00000000E+00  0.00000000E+00
  0.00000000E+00  0.00000000E+00  0.00000000E+00
  0.00000000E+00  0.00000000E+00  0.00000000E+00
  0.00000000E+00  0.00000000E+00  0.00000000E+00
  0.00000000E+00  0.00000000E+00  0.00000000E+00
  0.00000000E+00  0.00000000E+00  0.00000000E+00
  0.00000000E+00  0.00000000E+00  0.00000000E+00
  0.00000000E+00  0.00000000E+00  0.00000000E+00
  0.00000000E+00  0.00000000E+00  0.00000000E+00
  0.00000000E+00  0.00000000E+00  0.00000000E+00
  0.00000000E+00  0.00000000E+00  0.00000000E+00
  0.00000000E+00  0.00000000E+00  0.00000000E+00
  0.00000000E+00  0.00000000E+00  0.00000000E+00
  0.00000000E+00  0.00000000E+00  0.00000000E+00
  0.00000000E+00  0.00000000E+00  0.00000000E+00
  0.00000000E+00  0.00000000E+00  0.00000000E+00
  0.00000000E+00  0.00000000E+00  0.00000000E+00
  0.00000000E+00  0.00000000E+00  0.00000000E+00
  0.00000000E+00  0.00000000E+00  0.00000000E+00
  0.00000000E+00  0.00000000E+00  0.00000000E+00
  0.00000000E+00  0.00000000E+00  0.00000000E+00
