Ta Ce 
 1.0000000000000000
     9.9731620000000003    0.1515480000000000   -0.0693850000000000
    -0.0016820000000000   10.2891560000000002    0.0471880000000000
     0.0550650000000000   -0.0683550000000000   21.9015340000000016
 Ta  Ce 
  54  32
Cartesian
 10.8747821030966101 10.7493119325903912 10.8121092039525912
  1.7544966112012801  1.6266925346109200  1.9602605422764601
 10.0842922042151812  0.1561560188588000  3.5142969340411199
  1.9995526837110698  1.8486370860266899  4.9645429668455208
  0.2416882261664500  0.2983829244478701  6.4398314701555313
  1.7343158159486101  1.4914247020505300  8.5618858740106205
 10.0853987863530818  3.9211080227911799  0.1868031432408900
 10.3974283330341315  3.6685043614857902  3.4348112351288300
 10.4270641753482103  3.7393829808238106  6.8186457678901808
 10.2374589868692816  7.3593620464367406 10.1393830598503509
  1.8249379280906401  5.5818981448598803  1.6955647635469202
  0.1873614669290500  7.0541674769437908  3.6695180122281905
  2.0041593313069099  5.3418757510891304  5.1063888596329603
 -0.0860011528991500  7.2987036324562293  7.1440353290000411
  1.8283874483037998  5.5240486820217605  8.5507683733458713
  1.8093974710229501  8.9639916473200909  1.8036393053783502
  1.7552247712211100  8.6166357893744916  5.1156326350386907
  2.2925566267601001  8.5226480264974622  8.8757404076819899
  3.3421172861905402 -0.0006964407972000  0.0752116227752200
  3.8183420409828104 10.6934857079101882  3.2623007165183506
  3.5878995796915398 10.5389595568540599  7.0564005402646899
  3.2086846446296495  3.5717870709084902  0.4345004021090900
  3.6202741981171203  3.2640648945467596  3.0980486806509004
  3.5492465933053201  3.4468564863230000  7.1645737468525006
  3.4620066533355800  7.3018889898743398  0.0599538211218800
  3.3819286790931704  6.9320339425483306  3.1917712918650301
  3.5114447944828702  7.1472632067620498  6.7323144314718810
  6.6498975117143795 10.9683872248019583 10.4553124231575705
  5.6826342297896302  1.9289355396537300  1.0350432839774499
  6.9143759106325309 10.4650239379804706  3.4339555368974604
  5.1240390562033804  1.9351608336564001  5.5150162277913504
  6.8071226448730400 10.7009171547984820  7.1770780926634403
  5.1631651142781205  2.0697658098041996  8.5639181971620904
  7.4630388796568896  3.7264818566412505 -0.5037337318410200
  6.6625691933840701  3.7236755782817696  3.3581958168355803
  6.7282426109150908  3.9446806086759900  7.0224916533248809
  7.3269160180316906  6.9647925986907904 10.3469144673026516
  4.9391354827309097  5.4602399734215101  1.4900683864100202
  6.7324489959374807  7.1405273317984808  3.3031997071818204
  5.3253478709856097  5.4508866857409703  5.0690405369791103
  7.0019947450890694  6.9504379377025503  6.6904748379864509
  5.1043013646227706  5.5928455754688509  8.6786732170218315
  5.2987953746615197  9.0745714700083209  1.7450228663696303
  4.9707217186406805  8.9016449616343998  4.8308237238553904
  5.6103610330986404  8.7504636623545586  8.9222981526179606
  8.3939166615718399  2.2772873790571602  1.7829507030067600
  8.4751835760638805  2.1179732003980996  5.3630171325004712
  8.9466794586385898  1.7750290661707901  8.3908159287849102
  8.5740964790027476  5.6747921620718493  1.8547260963799101
  8.3428545630891104  5.2214147080465692  5.0020455942085409
  8.4834318536122986  5.3507513314560198  8.6674297262458300
  8.8396515090379797  8.8598100225396799  2.1462901268376204
  8.2377935847822901  8.7801915806638906  5.1998241922003805
  8.4197013989155209  9.1351622121041007  8.8050195497746095
  7.4518164178880300  6.7423776905218897 21.2824545048891629
  3.5989161216207406  0.0711993065134200 11.4701495945440008
  1.0922969543843200  8.5640499832863988 13.2698937759352518
  8.4905062062814505  9.5183263172348891 12.5230965477426111
  3.5374405938696198  6.9040105569330406 11.5172957226292407
 10.4714558553594514  3.4320566330819906 10.9828343960246393
  6.4196602346390801  3.9233779146109793 11.1299432088646029
  7.6401761046530101  7.3596132715781097 16.3671805194711837
  2.9974655988130299  3.3196425202154503 10.5008930404380614
  1.3907516347594298  3.9708496786822294 13.2432854441680998
  7.0387580484406804  5.5271072336888807 13.4651980437853407
  4.4843299482856906 -1.8880975592985898 14.6249238458775821
  6.5194920458588106  1.1025842915860098 13.8952793018077632
  3.9168252868025601  5.5119246359642604 16.1563256704256837
  5.7611554418483708  8.6736208930029104 11.8268543003613491
  0.4007411767420300  1.4960157118294100 13.7398169423840919
  3.7674106889301902  2.1754875312915698 14.9171855778066611
  6.4411898209978702 10.0008626011697093 16.6836789805479810
  0.0596072845131400  4.1494259967824005 16.4359597192556208
  7.2135777419303704  3.4269521152444096 15.6555843016936116
 -0.2689254541681900 11.6913152430098304 16.8783835428357101
  0.7945504932669201  7.7138775532696595 17.9909109541776502
  5.1962359412487098  7.9050265358501903 19.6375323787656519
  5.2518953283693008  4.6650922241835397 20.2407111812512213
  3.7569907465644001  1.1251423728070800 18.3489470776128627
 -1.8984098091939601  8.3829179072755622 18.9016000322219924
  1.4897185935956698  0.8481145109177700 20.3687890980846227
  5.8809175288432103 11.5293125918646311 19.7183132371314294
  9.0416874705642112  3.5089288192592893 19.1787376987400293
  8.5684582292688418 10.8390375807636801 21.8741113849861222
  0.6812007177727400  7.1884407304474198 21.1592848933874329
  2.1511932071792104  4.6368598456788508 19.2289188708728389
