clear
units metal
boundary p p p 
atom_style atomic
read_data tmp/data.lammps

### interactions
mass              1 42
pair_style  adp
pair_coeff * * ./Mo.adp Mo
neighbor 1.0 bin
neigh_modify  every 1  delay 1  check yes
thermo_style custom pe pxx pyy pzz pyz pxz pxy
thermo_modify flush yes
thermo 1
run 1
