POSCAR file written by OVITO Basic 3.7.1
   1.00000000000000     
    10.1138602096000003    0.0000000000000000    0.0000000000000000
     0.0000000000000000   10.1138602096000003    0.0000000000000000
     0.0000000000000000    0.0000000000000000   13.4851469462000004
   Ta
    72
Direct
  0.9931292204000002  0.9879047068000020  0.0225024224000023
  0.2282194985000032  0.1508405370000006  0.1316213667999975
  0.0226345924999976  0.0245837988000019  0.2802085500999993
  0.1990605033999984  0.1923746288999979  0.3916266908000026
  0.9951086821999979  0.0395577055999965  0.4908098888000012
  0.1693784636999993  0.1643823495999968  0.6165237579999996
  0.9710792814000015  0.0411257518000028  0.7107444592000007
  0.1691935690000008  0.1374658217999993  0.8775709689999971
  0.9991080660606286  0.3082987148999976  0.9909030673999979
  0.0414405673000005  0.3367557030000015  0.2350158648999994
  0.9826712945000011  0.3394974850000025  0.4976574225999997
  0.9971860501999998  0.3251340276000008  0.7649730117000004
  0.1662688696000032  0.5124363989000003  0.1195866444000018
  0.0196458226999994  0.7023371845999975  0.0152751449000021
  0.2042138276000003  0.4942178358000007  0.3760310134999969
  0.9720739560000027  0.6726531674000000  0.2442845810999970
  0.1640026725999988  0.4844638944000010  0.6402357726000005
  0.0431106516999975  0.6189644681000033  0.4854640070999992
  0.1482282802000014  0.5209909960999966  0.8780455652999990
  0.9741542694999978  0.6626006258999979  0.7643797663999976
  0.1933673261000024  0.8571662971000009  0.1451948192000003
  0.1734995411000000  0.8023860264000007  0.3658227450000027
  0.0954270758000035  0.8131860570000029  0.6151466873999993
  0.1469834537999972  0.8360882917000012  0.8679381485000022
  0.3508670311000017  0.9841820924999993  0.9759310391999989
  0.3900548379000028  0.0172088205000023  0.2963285079000002
  0.3202021816999974  0.9872175309999989  0.4999970337999997
  0.3383989924999966  0.9799660959999983  0.7378757912999987
  0.3032561297999976  0.2984607303000004  0.0064386785999986
  0.3491139913000012  0.2960343570999981  0.2476126871999966
  0.3292916883999979  0.3671822654999986  0.5209905016999983
  0.3075462820999988  0.3232277326999977  0.7760296208999975
  0.3254217515999969  0.6568075854999975  0.0111602917000013
  0.3600672768999971  0.6536416331000012  0.2568851111999990
  0.3285194807999972  0.6323105097999999  0.4913378771000012
  0.3179626806999991  0.6639186191999968  0.7721883577000028
  0.5179901635999968  0.1506803607000009  0.0943455402000026
  0.6807835942000011  0.9751222480999999  0.9575997594999990
  0.5204531202999974  0.2062862311000018  0.3980930645000029
  0.6864925913999969  0.9947555242000021  0.2501399121999981
  0.4609812680999994  0.2299468309999995  0.6156049694000032
  0.6195705669999967  0.0050716347000019  0.4897895069000029
  0.5081284493000027  0.1606102983000000  0.8443937258000034
  0.6423996348000003  0.9894145160999983  0.6976559848000008
  0.6769947342000009  0.3394589241000006  0.0234857264999988
  0.6643754179999988  0.3461220574999970  0.2423305793999972
  0.6585438167999982  0.3489637025000007  0.5146598327999996
  0.6749252968999997  0.3319108664000012  0.7529153011000034
  0.5149013330999992  0.5118916019999986  0.1227019238000011
  0.6054740699999996  0.7086631569000019  0.9840140064000025
  0.5390830000999998  0.4995254037999999  0.3975309646000014
  0.6777768293000008  0.6588315406999996  0.2343195433000034
  0.4605877487000001  0.4863523920000006  0.6653063187999990
  0.6703187471999996  0.6741244158000015  0.4833327734000008
  0.5084804414999979  0.4736292577999990  0.8952570944000016
  0.6276446354999976  0.6682631521999980  0.7430748446999971
  0.4931934990000002  0.8320858634000032  0.1316806913999997
  0.4982380614999968  0.8273349573000033  0.3935628950999970
  0.4639000350000018  0.8169373447000012  0.6150250721000035
  0.4770829341999985  0.8270363572000008  0.8279534154999979
  0.8464206471999987  0.1499991174000002  0.1256325555999993
  0.8331151439999971  0.1845863069000018  0.3678546101999984
  0.8051624144000016  0.1957393185000029  0.6056332575000027
  0.8029683955000024  0.1627627899000004  0.8577491606000009
  0.8556999923999982  0.4846102282999993  0.1175948233999975
  0.8375714048999967  0.5002788253000006  0.3470153860000025
  0.8113203005000003  0.5265714567999993  0.6396343700999978
  0.8168681328000034  0.5004736074999983  0.9081972574999995
  0.8797798189999995  0.8384286443999969  0.1523842106999993
  0.8849637941999973  0.8314896519000001  0.4016310311000026
  0.8219611437000012  0.8178212802000004  0.6207335750000027
  0.8659611586000011  0.8586533653000004  0.8608340361000018
 
  0.00000000E+00  0.00000000E+00  0.00000000E+00
  0.00000000E+00  0.00000000E+00  0.00000000E+00
  0.00000000E+00  0.00000000E+00  0.00000000E+00
  0.00000000E+00  0.00000000E+00  0.00000000E+00
  0.00000000E+00  0.00000000E+00  0.00000000E+00
  0.00000000E+00  0.00000000E+00  0.00000000E+00
  0.00000000E+00  0.00000000E+00  0.00000000E+00
  0.00000000E+00  0.00000000E+00  0.00000000E+00
  0.00000000E+00  0.00000000E+00  0.00000000E+00
  0.00000000E+00  0.00000000E+00  0.00000000E+00
  0.00000000E+00  0.00000000E+00  0.00000000E+00
  0.00000000E+00  0.00000000E+00  0.00000000E+00
  0.00000000E+00  0.00000000E+00  0.00000000E+00
  0.00000000E+00  0.00000000E+00  0.00000000E+00
  0.00000000E+00  0.00000000E+00  0.00000000E+00
  0.00000000E+00  0.00000000E+00  0.00000000E+00
  0.00000000E+00  0.00000000E+00  0.00000000E+00
  0.00000000E+00  0.00000000E+00  0.00000000E+00
  0.00000000E+00  0.00000000E+00  0.00000000E+00
  0.00000000E+00  0.00000000E+00  0.00000000E+00
  0.00000000E+00  0.00000000E+00  0.00000000E+00
  0.00000000E+00  0.00000000E+00  0.00000000E+00
  0.00000000E+00  0.00000000E+00  0.00000000E+00
  0.00000000E+00  0.00000000E+00  0.00000000E+00
  0.00000000E+00  0.00000000E+00  0.00000000E+00
  0.00000000E+00  0.00000000E+00  0.00000000E+00
  0.00000000E+00  0.00000000E+00  0.00000000E+00
  0.00000000E+00  0.00000000E+00  0.00000000E+00
  0.00000000E+00  0.00000000E+00  0.00000000E+00
  0.00000000E+00  0.00000000E+00  0.00000000E+00
  0.00000000E+00  0.00000000E+00  0.00000000E+00
  0.00000000E+00  0.00000000E+00  0.00000000E+00
  0.00000000E+00  0.00000000E+00  0.00000000E+00
  0.00000000E+00  0.00000000E+00  0.00000000E+00
  0.00000000E+00  0.00000000E+00  0.00000000E+00
  0.00000000E+00  0.00000000E+00  0.00000000E+00
  0.00000000E+00  0.00000000E+00  0.00000000E+00
  0.00000000E+00  0.00000000E+00  0.00000000E+00
  0.00000000E+00  0.00000000E+00  0.00000000E+00
  0.00000000E+00  0.00000000E+00  0.00000000E+00
  0.00000000E+00  0.00000000E+00  0.00000000E+00
  0.00000000E+00  0.00000000E+00  0.00000000E+00
  0.00000000E+00  0.00000000E+00  0.00000000E+00
  0.00000000E+00  0.00000000E+00  0.00000000E+00
  0.00000000E+00  0.00000000E+00  0.00000000E+00
  0.00000000E+00  0.00000000E+00  0.00000000E+00
  0.00000000E+00  0.00000000E+00  0.00000000E+00
  0.00000000E+00  0.00000000E+00  0.00000000E+00
  0.00000000E+00  0.00000000E+00  0.00000000E+00
  0.00000000E+00  0.00000000E+00  0.00000000E+00
  0.00000000E+00  0.00000000E+00  0.00000000E+00
  0.00000000E+00  0.00000000E+00  0.00000000E+00
  0.00000000E+00  0.00000000E+00  0.00000000E+00
  0.00000000E+00  0.00000000E+00  0.00000000E+00
  0.00000000E+00  0.00000000E+00  0.00000000E+00
  0.00000000E+00  0.00000000E+00  0.00000000E+00
  0.00000000E+00  0.00000000E+00  0.00000000E+00
  0.00000000E+00  0.00000000E+00  0.00000000E+00
  0.00000000E+00  0.00000000E+00  0.00000000E+00
  0.00000000E+00  0.00000000E+00  0.00000000E+00
  0.00000000E+00  0.00000000E+00  0.00000000E+00
  0.00000000E+00  0.00000000E+00  0.00000000E+00
  0.00000000E+00  0.00000000E+00  0.00000000E+00
  0.00000000E+00  0.00000000E+00  0.00000000E+00
  0.00000000E+00  0.00000000E+00  0.00000000E+00
  0.00000000E+00  0.00000000E+00  0.00000000E+00
  0.00000000E+00  0.00000000E+00  0.00000000E+00
  0.00000000E+00  0.00000000E+00  0.00000000E+00
  0.00000000E+00  0.00000000E+00  0.00000000E+00
  0.00000000E+00  0.00000000E+00  0.00000000E+00
  0.00000000E+00  0.00000000E+00  0.00000000E+00
  0.00000000E+00  0.00000000E+00  0.00000000E+00
