POSCAR file written by OVITO Basic 3.7.11
1
10.1138602096 0.0 0.0
0.0 10.1138602096 0.0
0.0 0.0 13.4851469462
Ta 
72 
Direct
0.9931292204 0.9879047068 0.0225024224
0.2282194985 0.150840537 0.1316213668
0.0226345925 0.0245837988 0.2802085501
0.1990605034 0.1923746289 0.3916266908
0.9951086822 0.0395577056 0.4908098888
0.1693784637 0.1643823496 0.616523758
0.9710792814 0.0411257518 0.7107444592
0.169193569 0.1374658218 0.877570969
-8.9193393937e-04 0.3082987149 0.9909030674
0.0414405673 0.336755703 0.2350158649
0.9826712945 0.339497485 0.4976574226
-0.0028139498 0.3251340276 0.7649730117
0.1662688696 0.5124363989 0.1195866444
0.0196458227 0.7023371846 0.0152751449
0.2042138276 0.4942178358 0.3760310135
0.972073956 0.6726531674 0.2442845811
0.1640026726 0.4844638944 0.6402357726
0.0431106517 0.6189644681 0.4854640071
0.1482282802 0.5209909961 0.8780455653
0.9741542695 0.6626006259 0.7643797664
0.1933673261 0.8571662971 0.1451948192
0.1734995411 0.8023860264 0.365822745
0.0954270758 0.813186057 0.6151466874
0.1469834538 0.8360882917 0.8679381485
0.3508670311 0.9841820925 0.9759310392
0.3900548379 0.0172088205 0.2963285079
0.3202021817 0.987217531 0.4999970338
0.3383989925 0.979966096 0.7378757913
0.3032561298 0.2984607303 1.0064386786
0.3491139913 0.2960343571 0.2476126872
0.3292916884 0.3671822655 0.5209905017
0.3075462821 0.3232277327 0.7760296209
0.3254217516 0.6568075855 0.0111602917
0.3600672769 0.6536416331 0.2568851112
0.3285194808 0.6323105098 0.4913378771
0.3179626807 0.6639186192 0.7721883577
0.5179901636 0.1506803607 0.0943455402
0.6807835942 0.9751222481 0.9575997595
0.5204531203 0.2062862311 0.3980930645
0.6864925914 -0.0052444758 0.2501399122
0.4609812681 0.229946831 0.6156049694
0.619570567 0.0050716347 0.4897895069
0.5081284493 0.1606102983 0.8443937258
0.6423996348 0.9894145161 0.6976559848
0.6769947342 0.3394589241 0.0234857265
0.664375418 0.3461220575 0.2423305794
0.6585438168 0.3489637025 0.5146598328
0.6749252969 0.3319108664 0.7529153011
0.5149013331 0.511891602 0.1227019238
0.60547407 0.7086631569 0.9840140064
0.5390830001 0.4995254038 0.3975309646
0.6777768293 0.6588315407 0.2343195433
0.4605877487 0.486352392 0.6653063188
0.6703187472 0.6741244158 0.4833327734
0.5084804415 0.4736292578 0.8952570944
0.6276446355 0.6682631522 0.7430748447
0.493193499 0.8320858634 0.1316806914
0.4982380615 0.8273349573 0.3935628951
0.463900035 0.8169373447 0.6150250721
0.4770829342 0.8270363572 0.8279534155
0.8464206472 0.1499991174 0.1256325556
0.833115144 0.1845863069 0.3678546102
0.8051624144 0.1957393185 0.6056332575
0.8029683955 0.1627627899 0.8577491606
0.8556999924 0.4846102283 0.1175948234
0.8375714049 0.5002788253 0.347015386
0.8113203005 0.5265714568 0.6396343701
0.8168681328 0.5004736075 0.9081972575
0.879779819 0.8384286444 0.1523842107
0.8849637942 0.8314896519 0.4016310311
0.8219611437 0.8178212802 0.620733575
0.8659611586 0.8586533653 0.8608340361
